p tw 67 76
1 2
2 13
3 4
3 5
4 5
4 45
5 6
6 7
7 8
8 9
9 10
10 11
11 12
12 14
13 24
14 15
14 16
15 63
16 17
17 18
18 19
18 27
19 20
20 21
21 22
22 23
23 25
24 35
25 26
26 27
27 28
28 29
28 45
29 30
30 31
30 45
31 32
32 33
33 34
34 36
35 46
36 37
37 38
38 39
39 40
39 45
40 41
41 42
42 43
43 44
44 63
45 47
46 57
47 48
48 49
49 50
50 51
50 59
51 52
52 53
53 54
54 55
55 56
56 58
57 65
58 59
58 61
59 60
60 63
61 62
62 63
63 64
65 66
66 67
66 45
67 3
